4 10 50 1 2
0 200
 1 40.00 50.00 0.00 0.00 0.00 0 0 0 1236
 2 45.00 68.00 90.00 10.00 10.00 1 1 1 830 1049
 3 45.00 70.00 90.00 30.00 20.00 1 1 1 756 939
 4 42.00 66.00 90.00 10.00 30.00 1 1 1 16 336
 5 42.00 68.00 90.00 10.00 30.00 1 1 1 643 866
 6 42.00 65.00 90.00 10.00 10.00 1 1 1 15 226
 7 40.00 69.00 90.00 20.00 10.00 1 1 1 499 824
 8 40.00 66.00 90.00 20.00 30.00 1 1 1 87 308
 9 38.00 68.00 90.00 20.00 10.00 1 1 1 150 429
 10 38.00 70.00 90.00 10.00 10.00 1 1 1 429 710
 11 35.00 66.00 90.00 10.00 20.00 1 1 1 279 488
 12 35.00 69.00 90.00 10.00 10.00 1 1 1 363 590
 13 25.00 85.00 90.00 20.00 20.00 1 1 1 547 826
 14 22.00 75.00 90.00 30.00 10.00 1 1 1 30 280
 15 22.00 85.00 90.00 10.00 40.00 1 1 1 489 698
 16 20.00 80.00 90.00 40.00 10.00 1 1 1 318 495
 17 20.00 85.00 90.00 40.00 10.00 1 1 1 394 609
 18 18.00 75.00 90.00 20.00 10.00 1 1 1 33 226
 19 15.00 75.00 90.00 20.00 10.00 1 1 1 68 365
 20 15.00 80.00 90.00 10.00 40.00 1 1 1 176 447
 21 30.00 50.00 90.00 10.00 20.00 1 1 1 10 265
 22 30.00 52.00 90.00 20.00 40.00 1 1 1 836 1043
 23 28.00 52.00 90.00 20.00 10.00 1 1 1 704 991
 24 28.00 55.00 90.00 10.00 20.00 1 1 1 664 845
 25 25.00 50.00 90.00 10.00 10.00 1 1 1 15 333
 26 25.00 52.00 90.00 40.00 10.00 1 1 1 88 305
 27 25.00 55.00 90.00 10.00 30.00 1 1 1 502 821
 28 23.00 52.00 90.00 10.00 20.00 1 1 1 179 398
 29 23.00 55.00 90.00 20.00 10.00 1 1 1 476 663
 30 20.00 50.00 90.00 10.00 10.00 1 1 1 288 475
 31 20.00 55.00 90.00 10.00 10.00 1 1 1 368 585
 32 10.00 35.00 90.00 20.00 10.00 1 1 1 144 293
 33 10.00 40.00 90.00 30.00 20.00 1 1 1 31 309
 34 8.00 40.00 90.00 40.00 10.00 1 1 1 33 313
 35 8.00 45.00 90.00 20.00 40.00 1 1 1 655 912
 36 5.00 35.00 90.00 10.00 10.00 1 1 1 191 436
 37 5.00 45.00 90.00 10.00 20.00 1 1 1 588 793
 38 2.00 40.00 90.00 20.00 20.00 1 1 1 305 512
 39 0.00 40.00 90.00 30.00 20.00 1 1 1 414 587
 40 0.00 45.00 90.00 20.00 10.00 1 1 1 481 710
 41 35.00 30.00 90.00 10.00 10.00 1 1 1 180 405
 42 35.00 32.00 90.00 10.00 20.00 1 1 1 63 338
 43 33.00 32.00 90.00 20.00 30.00 1 1 1 19 345
 44 33.00 35.00 90.00 10.00 10.00 1 1 1 16 273
 45 32.00 30.00 90.00 10.00 10.00 1 1 1 278 493
 46 30.00 30.00 90.00 10.00 10.00 1 1 1 453 688
 47 30.00 32.00 90.00 30.00 10.00 1 1 1 355 602
 48 30.00 35.00 90.00 10.00 20.00 1 1 1 837 1127
 49 28.00 30.00 90.00 10.00 20.00 1 1 1 539 786
 50 28.00 35.00 90.00 10.00 10.00 1 1 1 867 1126
 51 26.00 32.00 90.00 10.00 20.00 1 1 1 719 976
